NAME : EIL51
COMMENT : 51-city problem (Eilon)
TYPE : TSP
DIMENSION : 51
EDGE_WEIGHT_TYPE : EUC_2D
NODE_COORD_SECTION
1 37 52
2 49 49
3 52 64
4 20 26
5 40 30
6 21 47
7 17 63
8 31 62
9 52 33
10 51 21
11 42 41
12 31 32
13 5 25
14 12 42
15 36 16
16 52 41
17 27 23
18 46 10
19 17 33
20 56 20
21 36 10
22 11 28
23 22 14
24 18 44
25 36 10
26 30 19
27 13 36
28 24 10
29 38 14
30 52 19
31 12 32
32 27 46
33 33 15
34 21 27
35 44 34
36 40 41
37 46 21
38 41 20
39 54 14
40 30 28
41 37 22
42 33 14
43 48 30
44 33 20
45 17 20
46 51 16
47 13 25
48 7 50
49 38 14
50 31 18
51 5 27
EOF
